p tdp 73 72
9 31
3 19
40 34
47 9
6 51
71 13
41 23
2 52
67 59
72 14
60 39
68 65
11 40
20 59
15 27
43 35
30 32
18 42
25 12
12 38
38 50
49 18
64 1
29 37
28 16
73 7
27 19
4 70
6 5
61 25
55 5
33 28
1 10
57 3
45 8
65 52
31 35
5 54
19 17
21 36
24 63
46 69
40 62
16 19
24 4
72 7
26 2
16 66
8 51
8 34
64 71
58 69
27 53
56 60
1 73
44 1
20 2
4 29
20 21
47 48
69 64
31 69
32 12
69 39
6 37
41 34
49 59
19 41
20 22
69 68
71 38
23 73
